&CONTROL
   calculation      = 'scf'
   verbosity        = 'low'
   outdir           = './tmp'
   prefix           = 'SiC'
   etot_conv_thr    = 1e-05
   forc_conv_thr    = 0.0001
   pseudo_dir       = '/opt/pbe'
/
&SYSTEM
   ibrav            = 2
   ecutwfc          = 60
   ecutrho          = 480
   occupations      = 'tetrahedra'
   ntyp             = 2
   nat              = 2
   celldm(1)        = 8.27616899
/
&ELECTRONS
   conv_thr         = 1e-12
/
&IONS
/
&CELL
   cell_dofree      = 'ibrav'
/

ATOMIC_SPECIES
Si 28.085 Si.pbe-n-kjpaw_psl.1.0.0.UPF
C 12.011 C.pbe-n-kjpaw_psl.1.0.0.UPF

K_POINTS automatic
14 14 14  0 0 0

ATOMIC_POSITIONS crystal
Si 0.25     0.25     0.25
C 0.0000000000 0.0000000000 0.0000000000 

