Dst01_06
&CONTROL
   calculation      = 'relax'
   verbosity        = 'low'
   outdir           = './tmp'
   prefix           = 'SiC'
   etot_conv_thr    = 1e-05
   forc_conv_thr    = 0.0001
   pseudo_dir       = '/opt/pbe'
   tstress          = .true.
   tprnfor          = .true.
 /
&SYSTEM
   ibrav            = 0
   ecutwfc          = 60
   ecutrho          = 480
   occupations      = 'tetrahedra'
   ntyp             = 2
   nat              = 2
   celldm(1)        = 8.27616899
 /
&ELECTRONS
   conv_thr         = 1e-12
 /
&IONS
 /
ATOMIC_SPECIES
Si 28.085 Si.pbe-n-kjpaw_psl.1.0.0.UPF
C 12.011 C.pbe-n-kjpaw_psl.1.0.0.UPF
ATOMIC_POSITIONS (crystal)
   Si     0.2500000000    0.2500000000    0.2500000000
   C      0.0000000000    0.0000000000    0.0000000000
K_POINTS automatic
14 14 14  0 0 0
CELL_PARAMETERS {alat}
  -0.4999925000   -0.0000050001    0.5000024999
   0.0000274993    0.5000199991    0.5000249991
  -0.4999899999    0.4999949999   -0.0000025000
